\ LP file for the Reid example.

Maximize
  Obj: 0
Subject to
 x0 + x5 = 1
 x0 + x6 = 1
 x1 + x5 + x7 = 1
 x1 + x2 + x6 + x8 = 1
 x2 + x9 = 1
 x3 + x7 = 1
 x3 + x4 + x8 = 1
 x4 + x9 = 1
 2 x0 + 2 x1 + 2 x2 + 2 x3 + 2 x4 + 2 x5 + 2 x6 + 2 x7 + 2 x8 + 2 x9 = 8
Binary
  x0 x1 x2 x3 x4 x5 x6 x7 x8 x9
End
